 C                                      
    1.000000000000000     
     2.4672201713868380    0.0000030340830926   -0.0000000845910741
     0.0000052089867333    4.2674520374411260   -0.0000005559226441
    -0.0000001986131354   -0.0000008412749272    7.1304944467991680
   8
Direct
  0.0004050846949416 -0.0000002964538378  0.4999997738093123
  0.0003999392831946 -0.0000054077908839  0.0000003086451109
  0.5003663267594197  0.1665365507966157  0.4999998959847209
  0.5003654842346690  0.5000105967728865  0.4999997779519460
  0.5003658200296686  0.4999946553907541  0.0000001493593141
  0.0003961025389520  0.3334640291799271  0.0000001520669919
  0.5003634620435188  0.8334640840596044  0.0000003189877208
  0.0003962326435825  0.6665357880449336  0.4999996231948828

  0.00000000E+00  0.00000000E+00  0.00000000E+00
  0.00000000E+00  0.00000000E+00  0.00000000E+00
  0.00000000E+00  0.00000000E+00  0.00000000E+00
  0.00000000E+00  0.00000000E+00  0.00000000E+00
  0.00000000E+00  0.00000000E+00  0.00000000E+00
  0.00000000E+00  0.00000000E+00  0.00000000E+00
  0.00000000E+00  0.00000000E+00  0.00000000E+00
  0.00000000E+00  0.00000000E+00  0.00000000E+00
